Problem:    
Rows:       260
Columns:    89 (72 integer, 72 binary)
Non-zeros:  936
Status:     INTEGER OPTIMAL
Objective:  value = 39.364842 (MINimum)

   No.   Row name        Activity     Lower bound   Upper bound
------ ------------    ------------- ------------- -------------
     1 r.5                   1063.36             0               
     2 r.6                  -1001.29      -1007.88               
     3 r.7                   39.3648             0               
     4 r.8                   22.7073      -1008.77               
     5 r.9                   39.3648             0               
     6 r.10                  26.0495      -1008.05               
     7 r.11                  1063.36             0               
     8 r.12                 -1009.04      -1009.66               
     9 r.13                  39.3648             0               
    10 r.14                  22.7073      -1023.17               
    11 r.15                  1063.36             0               
    12 r.16                 -1003.14      -1021.77               
    13 r.17                  1063.36             0               
    14 r.18                 -1017.42      -1022.26               
    15 r.19                  39.3648             0               
    16 r.20                  22.7073      -1021.05               
    17 r.21                  39.3648             0               
    18 r.22                   27.869      -1016.23               
    19 r.23                  1063.36             0               
    20 r.24                 -996.131         -1017               
    21 r.25                  1063.36             0               
    22 r.26                 -1023.37      -1023.37               
    23 r.27                  39.3648             0               
    24 r.28                 0.627111      -1022.23               
    25 r.29                  1063.36             0               
    26 r.30                 -984.635      -1007.34               
    27 r.31                  39.3648             0               
    28 r.32                  39.3648      -1014.21               
    29 r.33                  39.3648             0               
    30 r.34                  39.3648      -1000.65               
    31 r.35                  1063.36             0               
    32 r.36                 -984.635       -1012.5               
    33 r.37                        1             1             = 
    34 r.38                        1             1             = 
    35 r.39                        1             1             = 
    36 r.40                        1             1             = 
    37 r.41                        1             1             = 
    38 r.42                        1             1             = 
    39 r.43                        1             1             = 
    40 r.44                        1             1             = 
    41 r.45                     1025             2               
    42 r.46                    -1025         -1025               
    43 r.47                  2051.34      -1008.05               
    44 r.48                     1025             2               
    45 r.49                    -1025         -1025               
    46 r.50                  2040.26      -1009.66               
    47 r.51                     1025             2               
    48 r.52                    -1025         -1025               
    49 r.53                     2048      -1023.17               
    50 r.54                     1025             2               
    51 r.55                    -1025         -1025               
    52 r.56                  2046.16      -1021.77               
    53 r.57                        2             2               
    54 r.58                       -2         -1025               
    55 r.59                 -16.1248      -1022.26               
    56 r.60                     1024             2               
    57 r.61                    -1024         -1025               
    58 r.62                     2048      -1021.05               
    59 r.63                     1025             2               
    60 r.64                    -1025         -1025               
    61 r.65                  2053.16      -1016.23               
    62 r.66                     1025             2               
    63 r.67                    -1025         -1025               
    64 r.68                  2053.16         -1017               
    65 r.69                  5.95539             0               
    66 r.70                  22.0802             0               
    67 r.71                  5.95539             0               
    68 r.72                  22.0802             0               
    69 r.73                 -1007.34      -1007.34               
    70 r.74                  16.6576      -1014.21               
    71 r.75                 -1007.34      -1007.34               
    72 r.76                  16.6576      -1014.21               
    73 r.77                  16.6576      -1000.65               
    74 r.78                 -1007.34       -1012.5               
    75 r.79                  16.6576      -1000.65               
    76 r.80                 -1007.34       -1012.5               
    77 r.81                     1025             2               
    78 r.82                    -1025         -1025               
    79 r.83                     2048       16.1248               
    80 r.84                     1025             2               
    81 r.85                    -1025         -1025               
    82 r.86                  2052.07       15.2323               
    83 r.87                     1024             2               
    84 r.88                    -1024         -1025               
    85 r.89                     2048      -1023.17               
    86 r.90                        2             2               
    87 r.91                       -2         -1025               
    88 r.92                 -1021.77      -1021.77               
    89 r.93                     1025             2               
    90 r.94                    -1025         -1025               
    91 r.95                  2031.88      -1022.26               
    92 r.96                     1025             2               
    93 r.97                    -1025         -1025               
    94 r.98                  2052.07      -1021.05               
    95 r.99                     1024             2               
    96 r.100                   -1024         -1025               
    97 r.101                 2053.16      -1016.23               
    98 r.102                       2             2               
    99 r.103                      -2         -1025               
   100 r.104                -1014.77         -1017               
   101 r.105                 25.4224             0               
   102 r.106                       0             0               
   103 r.107                 25.4224             0               
   104 r.108                       0             0               
   105 r.109                -1007.34      -1007.34               
   106 r.110                 16.6576      -1014.21               
   107 r.111                -1003.27      -1007.34               
   108 r.112                 20.7264      -1014.21               
   109 r.113                    1024             2               
   110 r.114                   -1024         -1025               
   111 r.115                 2064.66      -1000.65               
   112 r.116                       2             2               
   113 r.117                      -2         -1025               
   114 r.118                -1003.27       -1012.5               
   115 r.119                    1025             2               
   116 r.120                   -1025         -1025               
   117 r.121                    2048       16.1248               
   118 r.122                    1025             2               
   119 r.123                   -1025         -1025               
   120 r.124                 2049.84       15.2323               
   121 r.125                    1024             2               
   122 r.126                   -1024         -1025               
   123 r.127                 2051.34       15.9518               
   124 r.128                       2             2               
   125 r.129                      -2         -1025               
   126 r.130                  1018.1       14.3362               
   127 r.131                    1025             2               
   128 r.132                   -1025         -1025               
   129 r.133                 2031.88      -1022.26               
   130 r.134                    1025             2               
   131 r.135                   -1025         -1025               
   132 r.136                 2049.84      -1021.05               
   133 r.137                    1024             2               
   134 r.138                   -1024         -1025               
   135 r.139                 2053.16      -1016.23               
   136 r.140                       2             2               
   137 r.141                      -2         -1025               
   138 r.142                   -1017         -1017               
   139 r.143                 22.0802             0               
   140 r.144                 18.0113             0               
   141 r.145                 22.0802             0               
   142 r.146                 18.0113             0               
   143 r.147                -1007.34      -1007.34               
   144 r.148                 16.6576      -1014.21               
   145 r.149                 -1005.5      -1007.34               
   146 r.150                    18.5      -1014.21               
   147 r.151                 16.6576      -1000.65               
   148 r.152                -1007.34       -1012.5               
   149 r.153                    18.5      -1000.65               
   150 r.154                 -1005.5       -1012.5               
   151 r.155                       2             2               
   152 r.156                      -2         -1025               
   153 r.157                 16.1248       16.1248               
   154 r.158                    1024             2               
   155 r.159                   -1024         -1025               
   156 r.160                    2048       15.2323               
   157 r.161                    1025             2               
   158 r.162                   -1025         -1025               
   159 r.163                 2067.47       15.9518               
   160 r.164                    1025             2               
   161 r.165                   -1025         -1025               
   162 r.166                 2040.26       14.3362               
   163 r.167                    1025             2               
   164 r.168                   -1025         -1025               
   165 r.169                 2064.12      0.828533               
   166 r.170                    1025             2               
   167 r.171                   -1025         -1025               
   168 r.172                 2046.16       2.22644               
   169 r.173                    1025             2               
   170 r.174                   -1025         -1025               
   171 r.175                 2069.29      -1016.23               
   172 r.176                    1025             2               
   173 r.177                   -1025         -1025               
   174 r.178                 2053.16         -1017               
   175 r.179                 4.21737             0               
   176 r.180                 22.0802             0               
   177 r.181                 4.21737             0               
   178 r.182                 22.0802             0               
   179 r.183                -991.218      -1007.34               
   180 r.184                 32.7823      -1014.21               
   181 r.185                -1007.34      -1007.34               
   182 r.186                 16.6576      -1014.21               
   183 r.187                    1025             2               
   184 r.188                   -1025         -1025               
   185 r.189                 2080.78      -1000.65               
   186 r.190                    1025             2               
   187 r.191                   -1025         -1025               
   188 r.192                 2064.66       -1012.5               
   189 r.193                    1025             2               
   190 r.194                   -1025         -1025               
   191 r.195                 2042.84       16.1248               
   192 r.196                    1025             2               
   193 r.197                   -1025         -1025               
   194 r.198                 2042.84       15.2323               
   195 r.199                    1024             2               
   196 r.200                   -1024         -1025               
   197 r.201                 2046.18       15.9518               
   198 r.202                       2             2               
   199 r.203                      -2         -1025               
   200 r.204                 1011.09       14.3362               
   201 r.205                    1024             2               
   202 r.206                   -1024         -1025               
   203 r.207                 2042.84      0.828533               
   204 r.208                       2             2               
   205 r.209                      -2         -1025               
   206 r.210                    1017       2.22644               
   207 r.211                    1025             2               
   208 r.212                   -1025         -1025               
   209 r.213                 2026.71       1.73801               
   210 r.214                    1025             2               
   211 r.215                   -1025         -1025               
   212 r.216                 2042.84       2.95016               
   213 r.217                 27.2419             0               
   214 r.218                 20.2377             0               
   215 r.219                 27.2419             0               
   216 r.220                 20.2377             0               
   217 r.221                    1025             2               
   218 r.222                   -1025         -1025               
   219 r.223                  2059.5      -1007.34               
   220 r.224                    1025             2               
   221 r.225                   -1025         -1025               
   222 r.226                  2059.5      -1014.21               
   223 r.227                 11.4958      -1000.65               
   224 r.228                 -1012.5       -1012.5               
   225 r.229                 11.4958      -1000.65               
   226 r.230                 -1012.5       -1012.5               
   227 r.231                -985.262      -1007.34               
   228 r.232                 38.7377      -1014.21               
   229 r.233                -985.262      -1007.34               
   230 r.234                 38.7377      -1014.21               
   231 r.235                    1025             2               
   232 r.236                   -1025         -1025               
   233 r.237                  2036.5        7.7697               
   234 r.238                    1025             2               
   235 r.239                   -1025         -1025               
   236 r.240                  2036.5        7.0042               
   237 r.241                    1025             2               
   238 r.242                   -1025         -1025               
   239 r.243                    2048      -1000.65               
   240 r.244                    1025             2               
   241 r.245                   -1025         -1025               
   242 r.246                    2048       -1012.5               
   243 r.247                    1024             2               
   244 r.248                   -1024         -1025               
   245 r.249                 2034.68       15.9518               
   246 r.250                       2             2               
   247 r.251                      -2         -1025               
   248 r.252                 999.599       14.3362               
   249 r.253                    1025             2               
   250 r.254                   -1025         -1025               
   251 r.255                 2015.22       1.73801               
   252 r.256                    1025             2               
   253 r.257                   -1025         -1025               
   254 r.258                 2031.34       2.95016               
   255 r.259                    1025             2               
   256 r.260                   -1025         -1025               
   257 r.261                    2048       16.6576               
   258 r.262                    1025             2               
   259 r.263                   -1025         -1025               
   260 r.264                    2048       9.79495               

   No. Column name       Activity     Lower bound   Upper bound
------ ------------    ------------- ------------- -------------
     1 tt                    39.3648             0               
     2 s_1_1        *              1             0             1 
     3 t_1_1                 16.6576             0               
     4 s_1_7        *              1             0             1 
     5 s_2_1        *              0             0             1 
     6 t_2_1                 16.6576             0               
     7 s_2_7        *              0             0             1 
     8 s_1_2        *              0             0             1 
     9 t_1_2                 16.6576             0               
    10 s_2_2        *              1             0             1 
    11 t_2_2                 20.7264             0               
    12 s_1_3        *              0             0             1 
    13 t_1_3                 16.6576             0               
    14 s_1_8        *              0             0             1 
    15 s_2_3        *              1             0             1 
    16 t_2_3                    18.5             0               
    17 s_2_8        *              1             0             1 
    18 s_1_4        *              1             0             1 
    19 t_1_4                 32.7823             0               
    20 s_2_4        *              0             0             1 
    21 t_2_4                 16.6576             0               
    22 s_1_5        *              0             0             1 
    23 t_1_5                 11.4958             0               
    24 s_2_5        *              1             0             1 
    25 t_2_5                 11.4958             0               
    26 s_1_6        *              1             0             1 
    27 t_1_6                 38.7377             0               
    28 s_2_6        *              0             0             1 
    29 t_2_6                 38.7377             0               
    30 t_1_7                       0             0               
    31 t_2_7                       0             0               
    32 t_1_8                       0             0               
    33 t_2_8                       0             0               
    34 r_1_1_2      *              1             0             1 
    35 u_1_1_2      *              0             0             1 
    36 r_2_1_2      *              1             0             1 
    37 u_2_1_2      *              0             0             1 
    38 r_1_1_3      *              1             0             1 
    39 u_1_1_3      *              0             0             1 
    40 r_2_1_3      *              1             0             1 
    41 u_2_1_3      *              0             0             1 
    42 r_1_1_4      *              0             0             1 
    43 u_1_1_4      *              0             0             1 
    44 r_2_1_4      *              1             0             1 
    45 u_2_1_4      *              0             0             1 
    46 r_1_1_5      *              1             0             1 
    47 u_1_1_5      *              0             0             1 
    48 r_2_1_5      *              1             0             1 
    49 u_2_1_5      *              0             0             1 
    50 r_1_2_3      *              1             0             1 
    51 u_1_2_3      *              0             0             1 
    52 r_2_2_3      *              0             0             1 
    53 u_2_2_3      *              1             0             1 
    54 r_1_2_4      *              1             0             1 
    55 u_1_2_4      *              0             0             1 
    56 r_2_2_4      *              1             0             1 
    57 u_2_2_4      *              0             0             1 
    58 r_1_2_5      *              1             0             1 
    59 u_1_2_5      *              0             0             1 
    60 r_2_2_5      *              0             0             1 
    61 u_2_2_5      *              1             0             1 
    62 r_1_2_8      *              1             0             1 
    63 u_1_2_8      *              0             0             1 
    64 r_2_2_8      *              0             0             1 
    65 u_2_2_8      *              1             0             1 
    66 r_1_3_4      *              1             0             1 
    67 u_1_3_4      *              0             0             1 
    68 r_2_3_4      *              1             0             1 
    69 u_2_3_4      *              0             0             1 
    70 r_1_3_5      *              1             0             1 
    71 u_1_3_5      *              0             0             1 
    72 r_2_3_5      *              0             0             1 
    73 u_2_3_5      *              1             0             1 
    74 r_1_4_5      *              1             0             1 
    75 u_1_4_5      *              0             0             1 
    76 r_2_4_5      *              1             0             1 
    77 u_2_4_5      *              0             0             1 
    78 r_1_4_8      *              1             0             1 
    79 u_1_4_8      *              0             0             1 
    80 r_2_4_8      *              1             0             1 
    81 u_2_4_8      *              0             0             1 
    82 r_1_5_7      *              1             0             1 
    83 u_1_5_7      *              0             0             1 
    84 r_2_5_7      *              1             0             1 
    85 u_2_5_7      *              0             0             1 
    86 r_1_7_8      *              1             0             1 
    87 u_1_7_8      *              0             0             1 
    88 r_2_7_8      *              1             0             1 
    89 u_2_7_8      *              0             0             1 

Integer feasibility conditions:

KKT.PE: max.abs.err = 4.55e-13 on row 64
        max.rel.err = 1.11e-16 on row 236
        High quality

KKT.PB: max.abs.err = 2.27e-13 on row 22
        max.rel.err = 2.22e-16 on row 22
        High quality

End of output
